k = 80;
b = 40;
AtomicConstraints =  [|
1, 7|
	1, 29|
	1, 30|
	1, 38|
	1, 39|
	1, 44|
	1, 45|
	2, 7|
	2, 8|
	2, 9|
	2, 10|
	2, 29|
	2, 30|
	2, 31|
	2, 32|
	2, 38|
	2, 39|
	2, 40|
	2, 41|
	2, 44|
	2, 45|
	3, 7|
	3, 8|
	3, 9|
	3, 10|
	3, 11|
	3, 29|
	3, 30|
	3, 31|
	3, 32|
	3, 33|
	3, 34|
	3, 38|
	3, 39|
	3, 40|
	3, 41|
	3, 42|
	3, 43|
	3, 44|
	3, 45|
	4, 5|
	4, 6|
	4, 7|
	4, 8|
	4, 9|
	4, 10|
	4, 11|
	4, 29|
	4, 30|
	4, 31|
	4, 32|
	4, 33|
	4, 34|
	4, 35|
	4, 36|
	4, 38|
	4, 39|
	4, 40|
	4, 41|
	4, 42|
	4, 43|
	4, 44|
	4, 45|
	5, 10|
	5, 11|
	12, 23|
	13, 6|
	13, 11|
	14, 5|
	14, 6|
	14, 9|
	14, 10|
	14, 11|
	15, 5|
	15, 6|
	15, 8|
	15, 9|
	15, 10|
	15, 11|
	16, 5|
	16, 6|
	16, 7|
	16, 8|
	16, 9|
	16, 10|
	16, 11|
	17, 5|
	17, 6|
	17, 7|
	17, 8|
	17, 9|
	17, 10|
	17, 11|
	18, 6|
	18, 23|
	19, 6|
	19, 11|
	19, 13|
	19, 23|
	20, 5|
	20, 6|
	20, 10|
	20, 11|
	20, 13|
	21, 5|
	21, 6|
	21, 9|
	21, 10|
	21, 11|
	21, 13|
	21, 14|
	22, 5|
	22, 6|
	22, 8|
	22, 9|
	22, 10|
	22, 11|
	22, 13|
	22, 14|
	22, 15|
	59, 5|
	59, 6|
	59, 7|
	59, 8|
	59, 9|
	59, 10|
	59, 11|
	59, 25|
	59, 26|
	59, 57|
	59, 27|
	59, 75|
	59, 76|
	59, 58|
	59, 56|
	59, 29|
	59, 30|
	59, 31|
	59, 32|
	59, 33|
	59, 34|
	59, 35|
	59, 36|
	59, 37|
	59, 38|
	59, 39|
	59, 40|
	59, 41|
	59, 42|
	59, 43|
	59, 44|
	59, 45|
	25, 5|
	25, 6|
	25, 7|
	25, 8|
	25, 9|
	25, 10|
	25, 11|
	25, 26|
	25, 57|
	25, 27|
	25, 76|
	25, 58|
	25, 56|
	25, 29|
	25, 30|
	25, 31|
	25, 32|
	25, 33|
	25, 34|
	25, 35|
	25, 36|
	25, 37|
	25, 38|
	25, 39|
	25, 40|
	25, 41|
	25, 42|
	25, 43|
	25, 44|
	25, 45|
	24, 5|
	24, 6|
	24, 7|
	24, 8|
	24, 9|
	24, 10|
	24, 11|
	24, 59|
	24, 25|
	24, 26|
	24, 57|
	24, 27|
	24, 74|
	24, 28|
	24, 75|
	24, 76|
	24, 58|
	24, 56|
	24, 29|
	24, 30|
	24, 31|
	24, 32|
	24, 33|
	24, 34|
	24, 35|
	24, 36|
	24, 37|
	24, 38|
	24, 39|
	24, 40|
	24, 41|
	24, 42|
	24, 43|
	24, 44|
	24, 45|
	26, 5|
	26, 6|
	26, 7|
	26, 8|
	26, 9|
	26, 10|
	26, 11|
	26, 57|
	26, 27|
	26, 58|
	26, 56|
	26, 29|
	26, 30|
	26, 31|
	26, 32|
	26, 33|
	26, 34|
	26, 35|
	26, 36|
	26, 37|
	26, 38|
	26, 39|
	26, 40|
	26, 41|
	26, 42|
	26, 43|
	26, 44|
	26, 45|
	57, 5|
	57, 6|
	57, 7|
	57, 8|
	57, 9|
	57, 10|
	57, 11|
	57, 27|
	57, 29|
	57, 30|
	57, 31|
	57, 32|
	57, 33|
	57, 34|
	57, 35|
	57, 36|
	57, 37|
	57, 38|
	57, 39|
	57, 40|
	57, 41|
	57, 42|
	57, 43|
	57, 44|
	57, 45|
	27, 5|
	27, 6|
	27, 7|
	27, 8|
	27, 9|
	27, 10|
	27, 11|
	27, 29|
	27, 30|
	27, 31|
	27, 32|
	27, 33|
	27, 34|
	27, 35|
	27, 36|
	27, 37|
	27, 38|
	27, 39|
	27, 40|
	27, 41|
	27, 42|
	27, 43|
	27, 44|
	27, 45|
	74, 5|
	74, 6|
	74, 7|
	74, 8|
	74, 9|
	74, 10|
	74, 11|
	74, 59|
	74, 25|
	74, 26|
	74, 57|
	74, 27|
	74, 28|
	74, 75|
	74, 76|
	74, 58|
	74, 56|
	74, 29|
	74, 30|
	74, 31|
	74, 32|
	74, 33|
	74, 34|
	74, 35|
	74, 36|
	74, 37|
	74, 38|
	74, 39|
	74, 40|
	74, 41|
	74, 42|
	74, 43|
	74, 44|
	74, 45|
	28, 5|
	28, 6|
	28, 7|
	28, 8|
	28, 9|
	28, 10|
	28, 11|
	28, 25|
	28, 26|
	28, 57|
	28, 27|
	28, 75|
	28, 76|
	28, 58|
	28, 56|
	28, 29|
	28, 30|
	28, 31|
	28, 32|
	28, 33|
	28, 34|
	28, 35|
	28, 36|
	28, 37|
	28, 38|
	28, 39|
	28, 40|
	28, 41|
	28, 42|
	28, 43|
	28, 44|
	28, 45|
	75, 5|
	75, 6|
	75, 7|
	75, 8|
	75, 9|
	75, 10|
	75, 11|
	75, 26|
	75, 57|
	75, 27|
	75, 76|
	75, 58|
	75, 56|
	75, 29|
	75, 30|
	75, 31|
	75, 32|
	75, 33|
	75, 34|
	75, 35|
	75, 36|
	75, 37|
	75, 38|
	75, 39|
	75, 40|
	75, 41|
	75, 42|
	75, 43|
	75, 44|
	75, 45|
	76, 5|
	76, 6|
	76, 7|
	76, 8|
	76, 9|
	76, 10|
	76, 11|
	76, 57|
	76, 27|
	76, 58|
	76, 56|
	76, 29|
	76, 30|
	76, 31|
	76, 32|
	76, 33|
	76, 34|
	76, 35|
	76, 36|
	76, 37|
	76, 38|
	76, 39|
	76, 40|
	76, 41|
	76, 42|
	76, 43|
	76, 44|
	76, 45|
	58, 5|
	58, 6|
	58, 7|
	58, 8|
	58, 9|
	58, 10|
	58, 11|
	58, 57|
	58, 27|
	58, 56|
	58, 29|
	58, 30|
	58, 31|
	58, 32|
	58, 33|
	58, 34|
	58, 35|
	58, 36|
	58, 37|
	58, 38|
	58, 39|
	58, 40|
	58, 41|
	58, 42|
	58, 43|
	58, 44|
	58, 45|
	56, 5|
	56, 6|
	56, 7|
	56, 8|
	56, 9|
	56, 10|
	56, 11|
	56, 57|
	56, 27|
	56, 29|
	56, 30|
	56, 31|
	56, 32|
	56, 33|
	56, 34|
	56, 35|
	56, 36|
	56, 37|
	56, 38|
	56, 39|
	56, 40|
	56, 41|
	56, 42|
	56, 43|
	56, 44|
	56, 45|
	30, 7|
	30, 8|
	30, 29|
	30, 38|
	30, 39|
	30, 40|
	31, 7|
	31, 8|
	31, 9|
	31, 38|
	31, 39|
	31, 40|
	31, 41|
	32, 7|
	32, 8|
	32, 9|
	32, 10|
	32, 39|
	32, 40|
	32, 41|
	32, 42|
	33, 7|
	33, 8|
	33, 9|
	33, 10|
	33, 11|
	33, 40|
	33, 41|
	33, 42|
	33, 43|
	34, 5|
	34, 7|
	34, 8|
	34, 9|
	34, 10|
	34, 11|
	34, 41|
	34, 42|
	34, 43|
	35, 5|
	35, 6|
	35, 7|
	35, 8|
	35, 9|
	35, 10|
	35, 11|
	35, 42|
	35, 43|
	36, 5|
	36, 6|
	36, 7|
	36, 8|
	36, 9|
	36, 10|
	36, 11|
	36, 43|
	37, 5|
	37, 6|
	37, 7|
	37, 8|
	37, 9|
	37, 10|
	37, 11|
	38, 7|
	39, 7|
	39, 8|
	40, 7|
	40, 8|
	40, 9|
	41, 7|
	41, 8|
	41, 9|
	41, 10|
	42, 7|
	42, 8|
	42, 9|
	42, 10|
	42, 11|
	43, 5|
	43, 7|
	43, 8|
	43, 9|
	43, 10|
	43, 11|
	44, 29|
	44, 38|
	45, 7|
	45, 29|
	45, 38|
	45, 39|
	46, 5|
	46, 6|
	46, 7|
	46, 8|
	46, 9|
	46, 10|
	46, 11|
	46, 12|
	46, 13|
	46, 14|
	46, 15|
	46, 16|
	46, 17|
	46, 18|
	46, 19|
	46, 20|
	46, 21|
	46, 22|
	46, 23|
	46, 47|
	46, 50|
	46, 78|
	46, 66|
	46, 62|
	46, 63|
	46, 67|
	46, 64|
	46, 65|
	46, 80|
	47, 5|
	47, 6|
	47, 7|
	47, 8|
	47, 9|
	47, 10|
	47, 11|
	47, 12|
	47, 13|
	47, 14|
	47, 15|
	47, 16|
	47, 17|
	47, 18|
	47, 19|
	47, 20|
	47, 21|
	47, 22|
	47, 23|
	47, 50|
	47, 78|
	47, 66|
	47, 62|
	47, 63|
	47, 67|
	47, 64|
	47, 65|
	47, 80|
	48, 5|
	48, 6|
	48, 7|
	48, 8|
	48, 9|
	48, 10|
	48, 11|
	48, 12|
	48, 13|
	48, 14|
	48, 15|
	48, 16|
	48, 17|
	48, 18|
	48, 19|
	48, 20|
	48, 21|
	48, 22|
	48, 23|
	48, 46|
	48, 47|
	48, 50|
	48, 54|
	48, 55|
	48, 78|
	48, 66|
	48, 62|
	48, 79|
	48, 73|
	48, 63|
	48, 61|
	48, 67|
	48, 64|
	48, 65|
	48, 80|
	49, 5|
	49, 6|
	49, 7|
	49, 8|
	49, 9|
	49, 10|
	49, 11|
	49, 12|
	49, 13|
	49, 14|
	49, 15|
	49, 16|
	49, 17|
	49, 18|
	49, 19|
	49, 20|
	49, 21|
	49, 22|
	49, 23|
	49, 46|
	49, 47|
	49, 48|
	49, 50|
	49, 53|
	49, 54|
	49, 55|
	49, 78|
	49, 66|
	49, 62|
	49, 63|
	49, 67|
	49, 64|
	49, 65|
	49, 80|
	50, 5|
	50, 6|
	50, 7|
	50, 8|
	50, 9|
	50, 10|
	50, 11|
	50, 12|
	50, 13|
	50, 14|
	50, 15|
	50, 16|
	50, 17|
	50, 18|
	50, 19|
	50, 20|
	50, 21|
	50, 22|
	50, 23|
	50, 78|
	50, 66|
	50, 62|
	50, 79|
	50, 73|
	50, 63|
	50, 61|
	50, 67|
	50, 64|
	50, 65|
	50, 80|
	51, 5|
	51, 6|
	51, 7|
	51, 8|
	51, 9|
	51, 10|
	51, 11|
	51, 12|
	51, 13|
	51, 14|
	51, 15|
	51, 16|
	51, 17|
	51, 18|
	51, 19|
	51, 20|
	51, 21|
	51, 22|
	51, 23|
	51, 46|
	51, 47|
	51, 48|
	51, 49|
	51, 50|
	51, 52|
	51, 53|
	51, 54|
	51, 55|
	51, 78|
	51, 66|
	51, 62|
	51, 79|
	51, 73|
	51, 63|
	51, 71|
	51, 61|
	51, 77|
	51, 60|
	51, 68|
	51, 70|
	51, 67|
	51, 64|
	51, 65|
	51, 80|
	52, 5|
	52, 6|
	52, 7|
	52, 8|
	52, 9|
	52, 10|
	52, 11|
	52, 12|
	52, 13|
	52, 14|
	52, 15|
	52, 16|
	52, 17|
	52, 18|
	52, 19|
	52, 20|
	52, 21|
	52, 22|
	52, 23|
	52, 46|
	52, 47|
	52, 48|
	52, 49|
	52, 50|
	52, 53|
	52, 54|
	52, 55|
	52, 78|
	52, 66|
	52, 62|
	52, 79|
	52, 73|
	52, 63|
	52, 71|
	52, 61|
	52, 77|
	52, 60|
	52, 68|
	52, 70|
	52, 67|
	52, 64|
	52, 65|
	52, 80|
	53, 5|
	53, 6|
	53, 7|
	53, 8|
	53, 9|
	53, 10|
	53, 11|
	53, 12|
	53, 13|
	53, 14|
	53, 15|
	53, 16|
	53, 17|
	53, 18|
	53, 19|
	53, 20|
	53, 21|
	53, 22|
	53, 23|
	53, 46|
	53, 47|
	53, 50|
	53, 54|
	53, 55|
	53, 78|
	53, 66|
	53, 62|
	53, 63|
	53, 67|
	53, 64|
	53, 65|
	53, 80|
	54, 5|
	54, 6|
	54, 7|
	54, 8|
	54, 9|
	54, 10|
	54, 11|
	54, 12|
	54, 13|
	54, 14|
	54, 15|
	54, 16|
	54, 17|
	54, 18|
	54, 19|
	54, 20|
	54, 21|
	54, 22|
	54, 23|
	54, 46|
	54, 47|
	54, 50|
	54, 55|
	54, 78|
	54, 66|
	54, 62|
	54, 63|
	54, 67|
	54, 64|
	54, 65|
	54, 80|
	55, 5|
	55, 6|
	55, 7|
	55, 8|
	55, 9|
	55, 10|
	55, 11|
	55, 12|
	55, 13|
	55, 14|
	55, 15|
	55, 16|
	55, 17|
	55, 18|
	55, 19|
	55, 20|
	55, 21|
	55, 22|
	55, 23|
	55, 46|
	55, 47|
	55, 50|
	55, 78|
	55, 66|
	55, 62|
	55, 63|
	55, 67|
	55, 64|
	55, 65|
	55, 80|
	78, 66|
	78, 62|
	78, 73|
	78, 63|
	78, 64|
	78, 65|
	66, 62|
	66, 63|
	66, 65|
	79, 78|
	79, 66|
	79, 62|
	79, 73|
	79, 63|
	79, 71|
	79, 61|
	79, 67|
	79, 64|
	79, 65|
	73, 62|
	73, 63|
	73, 61|
	71, 63|
	71, 61|
	77, 60|
	77, 70|
	68, 60|
	68, 70|
	68, 72|
	67, 66|
	67, 62|
	67, 64|
	67, 65|
	64, 62|
	64, 65|
	80, 78|
	80, 66|
	80, 62|
	80, 79|
	80, 73|
	80, 63|
	80, 67|
	80, 64|
	80, 65|];
DisjunctiveConstraints =  [|
	1, 10, 65, 1|
	2, 3, 2, 1|
	2, 5, 60, 2|
	2, 8, 2, 63|
	3, 4, 3, 2|
	3, 6, 61, 3|
	3, 10, 3, 65|
	4, 5, 4, 60|
	8, 9, 8, 7|
	9, 10, 9, 8|
	10, 11, 10, 9|
	14, 13, 14, 15|
	15, 14, 15, 16|
	16, 15, 16, 17|
	18, 12, 18, 19|
	19, 18, 19, 20|
	20, 19, 20, 21|
	21, 20, 21, 22|
	59, 17, 72, 59|
	25, 17, 72, 25|
	26, 17, 72, 26|
	57, 17, 72, 57|
	27, 17, 72, 27|
	30, 7, 30, 62|
	30, 9, 64, 30|
	30, 31, 30, 45|
	31, 8, 31, 63|
	31, 10, 65, 31|
	31, 32, 31, 30|
	29, 7, 62, 29|
	32, 9, 32, 64|
	32, 11, 66, 32|
	32, 33, 32, 31|
	33, 5, 60, 33|
	33, 10, 33, 65|
	33, 34, 33, 32|
	34, 11, 34, 66|
	34, 35, 34, 33|
	35, 5, 35, 60|
	35, 6, 61, 35|
	35, 36, 35, 34|
	36, 37, 36, 35|
	37, 6, 37, 61|
	38, 8, 63, 38|
	38, 39, 38, 29|
	39, 7, 39, 62|
	39, 9, 64, 39|
	39, 40, 39, 38|
	40, 8, 40, 63|
	40, 10, 65, 40|
	40, 41, 40, 39|
	41, 9, 41, 64|
	41, 11, 66, 41|
	41, 42, 41, 40|
	42, 5, 60, 42|
	42, 10, 42, 65|
	42, 43, 42, 41|
	43, 11, 43, 66|
	44, 7, 62, 44|
	45, 8, 63, 45|
	45, 30, 45, 44|
	46, 7, 46, 62|
	46, 11, 46, 66|
	46, 71, 16, 46|
	46, 61, 6, 46|
	46, 67, 46, 12|
	47, 7, 47, 62|
	47, 11, 47, 66|
	47, 71, 16, 47|
	47, 61, 6, 47|
	47, 67, 47, 12|
	48, 8, 48, 63|
	48, 23, 48, 78|
	48, 77, 22, 48|
	48, 60, 5, 48|
	49, 7, 49, 62|
	49, 11, 49, 66|
	49, 67, 49, 12|
	49, 80, 49, 25|
	50, 8, 50, 63|
	50, 23, 50, 78|
	50, 80, 50, 25|
	51, 22, 51, 77|
	52, 22, 52, 77|
	53, 7, 53, 62|
	53, 11, 53, 66|
	53, 67, 53, 12|
	54, 7, 54, 62|
	54, 11, 54, 66|
	54, 67, 54, 12|
	55, 7, 55, 62|
	55, 11, 55, 66|
	55, 67, 55, 12|
	66, 73, 66, 64|
	62, 63, 62, 65|
	73, 71, 73, 66|
	63, 61, 63, 62|
	71, 77, 71, 73|
	61, 60, 61, 63|
	77, 68, 77, 71|
	60, 70, 60, 61|
	70, 72, 70, 60|
	72, 69, 72, 70|];
SoftAtomicConstraints =  [|
2, 1|
3, 2|
4, 3|
6, 5|
8, 7|
9, 8|
10, 9|
11, 10|
23, 13|
13, 14|
14, 15|
15, 16|
16, 17|
12, 18|
18, 19|
19, 20|
20, 21|
21, 22|
59, 28|
38, 29|
31, 30|
32, 31|
33, 32|
34, 33|
35, 34|
36, 35|
37, 36|
39, 38|
40, 39|
41, 40|
42, 41|
43, 42|
45, 44|
30, 45|
48, 53|
70, 60|
60, 61|
63, 62|
61, 63|
66, 64|
62, 65|
73, 66|
78, 67|
72, 70|
77, 71|
69, 72|
71, 73|
25, 75|
26, 76|
68, 77|];
DirectSuccessors =  [];